c "794591.clq"
p edge 80 304
e 1 5
e 1 6
e 1 8
e 1 11
e 1 13
e 1 47
e 1 50
e 1 63
e 1 66
e 2 5
e 2 6
e 2 7
e 2 8
e 2 10
e 2 13
e 2 14
e 2 16
e 2 17
e 2 19
e 2 20
e 2 30
e 2 32
e 2 35
e 2 40
e 2 45
e 2 48
e 2 49
e 2 52
e 2 62
e 2 67
e 2 68
e 2 69
e 2 76
e 2 79
e 3 5
e 3 6
e 3 9
e 3 28
e 3 62
e 4 5
e 4 7
e 4 8
e 4 9
e 4 15
e 4 16
e 4 17
e 4 22
e 4 23
e 4 26
e 4 33
e 4 34
e 4 46
e 4 48
e 4 52
e 4 54
e 5 6
e 5 7
e 5 29
e 5 37
e 5 42
e 5 56
e 5 67
e 6 7
e 6 9
e 6 10
e 6 11
e 6 12
e 6 14
e 6 15
e 6 16
e 6 18
e 6 21
e 6 25
e 6 27
e 6 28
e 6 31
e 6 38
e 6 39
e 6 40
e 6 41
e 6 43
e 6 44
e 6 49
e 6 51
e 6 53
e 6 57
e 6 58
e 6 61
e 6 64
e 6 71
e 6 80
e 7 8
e 7 11
e 7 12
e 7 14
e 7 18
e 7 20
e 7 28
e 7 29
e 7 37
e 7 38
e 7 50
e 7 67
e 8 9
e 8 10
e 8 11
e 8 16
e 8 18
e 8 19
e 8 25
e 8 45
e 8 55
e 8 62
e 9 10
e 9 12
e 9 13
e 9 15
e 9 17
e 9 22
e 9 27
e 9 28
e 9 29
e 9 31
e 9 34
e 9 43
e 9 44
e 9 45
e 9 50
e 9 53
e 9 67
e 9 74
e 10 12
e 10 13
e 10 21
e 10 26
e 10 49
e 10 54
e 10 70
e 11 18
e 11 29
e 11 31
e 11 60
e 11 68
e 11 77
e 12 14
e 12 15
e 12 19
e 12 20
e 12 22
e 12 24
e 12 66
e 13 17
e 13 20
e 13 23
e 13 24
e 13 30
e 13 38
e 13 47
e 13 51
e 13 70
e 13 73
e 14 23
e 14 30
e 14 31
e 14 35
e 14 36
e 14 38
e 14 72
e 14 73
e 14 74
e 15 55
e 15 73
e 16 19
e 16 21
e 16 26
e 16 34
e 16 39
e 16 43
e 16 57
e 16 61
e 17 27
e 17 39
e 17 58
e 18 21
e 18 23
e 18 30
e 18 33
e 18 35
e 18 74
e 18 75
e 18 77
e 18 79
e 19 24
e 19 33
e 19 36
e 19 56
e 19 78
e 20 25
e 20 26
e 20 41
e 20 46
e 20 60
e 20 76
e 21 22
e 21 24
e 21 27
e 21 32
e 21 40
e 21 42
e 21 52
e 21 57
e 21 69
e 21 71
e 21 76
e 21 79
e 23 32
e 23 64
e 23 65
e 23 71
e 23 74
e 23 78
e 24 25
e 24 42
e 24 59
e 25 36
e 25 41
e 25 48
e 26 63
e 27 33
e 27 37
e 27 40
e 27 47
e 27 54
e 27 56
e 27 57
e 27 62
e 28 32
e 28 39
e 28 43
e 28 44
e 28 53
e 28 59
e 29 34
e 29 70
e 29 78
e 30 51
e 30 53
e 31 48
e 31 59
e 32 35
e 32 41
e 32 50
e 32 58
e 32 64
e 32 75
e 33 37
e 33 46
e 33 68
e 35 36
e 36 51
e 36 65
e 36 79
e 37 42
e 37 44
e 37 45
e 37 46
e 37 60
e 37 61
e 37 64
e 37 72
e 38 76
e 40 47
e 40 73
e 41 65
e 43 58
e 44 55
e 44 63
e 44 71
e 46 49
e 47 52
e 47 63
e 48 56
e 48 80
e 50 54
e 51 60
e 51 69
e 51 77
e 53 55
e 54 69
e 55 61
e 55 78
e 56 66
e 58 59
e 58 70
e 58 80
e 59 68
e 60 72
e 60 75
e 61 80
e 62 65
e 62 77
e 63 66
e 66 75
e 67 72
